NAME: random_points
TYPE: TSP
DIMENSION: 32
EDGE_WEIGHT_TYPE: EUC_2D
NODE_COORD_SECTION
1 313 51
2 580 236
3 459 215
4 656 25
5 748 752
6 998 502
7 265 678
8 33 116
9 318 562
10 643 726
11 398 324
12 143 114
13 605 600
14 914 289
15 441 232
16 929 926
17 495 341
18 375 757
19 566 463
20 343 792
21 276 637
22 848 913
23 145 672
24 255 358
25 85 657
26 682 94
27 42 429
28 803 834
29 134 115
30 448 671
31 616 39
32 535 701
EOF
